&control
              prefix = 'pw'
          pseudo_dir = '../../pseudos'
           verbosity = 'high'
          wf_collect = .true.
/&end
&system
           celldm(1) = 4.7
           celldm(3) = 2.55319148936
             ecutwfc = 20
               ibrav = 4
                 nat = 2
                ntyp = 2
/&end
&electrons
            conv_thr = 1e-08
/&end


ATOMIC_SPECIES
   B   10.811     B.pbe-mt_fhi.UPF
   N  14.0067     N.pbe-mt_fhi.UPF
ATOMIC_POSITIONS { crystal }
  N   0.0000000000   0.0000000000   0.5000000000
  B   0.3333333333   0.6666666667   0.5000000000
K_POINTS { automatic }
  9  9  1  0  0  0
