 &CONTROL
    prefix='SiH4',

    ! this is a comment: you can comment out variables

    ! if "pseudo_dir" and "outdir" are not set then pw.x will use the
    ! values of ESPRESSO_PSEUDO and ESPRESSO_TMPDIR environmental
    ! variables instead

    pseudo_dir = './'
    !outdir     =
 /

 &SYSTEM
    assume_isolated      =  'martyna-tuckerman',
    ibrav = 0,
    celldm(1) = 20.0
    ecutwfc =  30.0,

    nat =  5,
    ntyp =  2,

    nbnd = 8
 /
 &ELECTRONS
 /
CELL_PARAMETERS cubic
     1.000000000    0.000000000    0.000000000
     0.000000000    1.000000000    0.000000000
     0.000000000    0.000000000    1.000000000
ATOMIC_SPECIES 
   Si   1.0   Si.pz-vbc.UPF 
   H   1.0   H.pz-vbc.UPF 
ATOMIC_POSITIONS angstrom
Si      0.000000000     0.000000000     0.0000000000
H       0.000000000     1.489000000     0.0000000000
H       0.000000000     -0.496363243    -1.403832088
H       -1.21575425     -0.496363243    0.701916043
H       1.21575425      -0.496363243    0.701916043
K_POINTS gamma
